artifacts/planck/cosmic_witness_prediction_proof_robust.txt
Operation Cosmic Witness — robustness certificate:
  feature[3] = 2.725489
  threshold    = 2.9980379
  eps          = 0.02725489
  margin       = 0.2725489
  Base prediction = (0, 0).
  Claimed robust prediction = (0, 0).
  Perturbation upper bound: 2.75274389 ≤ 2.9980379 ⇒ still false branch.
  All perturbations respect the original branch; robustness holds.
